gil262_1
0 76 236 137 182 242 126 165 21 38 14 229 48 162 70 195 232 77 218 95 149 66 85 108 11 210 219 178 203 91 197 31 84 198 93 112 157 127 166 256 120 154 80 214 244 167 82 111 221 3 246 150 33 45 217 233 61 141 73 102 223 24 145 17 30 42 185 39 207 11 175 169 94 237 69 215 143 22 54 115 125 78 180 187 29 36 257 52 5 254 50 51 114 255 174 183 193 71 148 238 213 90 44 79 109 32 121 122 239 72 170 4 208 60 140 199 75 228 191 173 192 58 57 224 119 129 252 110 186 155 26 104 190 53 222 4 123 248 132 34 49 37 116 153 227 15 130 135 20 124 202 81 189 261 74 249 158 147 96 0